p cnf 578 1692
c inputs: 1 2 3 4 5 6 7 8 9 10 11 12 13 14
c variables for gates: 15 ... 564
c outputs: 565 566 567 568 569 570 571 572 573 574 575 576 577 578
c random input: 1 -2 -3 4 -5 -6 7 -8 -9 -10 11 -12 13 14
15 -2 -8 0
-15 2 0
-15 8 0
16 -1 -9 0
-16 1 0
-16 9 0
17 -15 16 0
-17 15 0
-17 -16 0
18 -16 15 0
-18 16 0
-18 -15 0
19 18 17 0
-19 -18 0
-19 -17 0
20 -2 -8 0
-20 2 0
-20 8 0
21 -1 -9 0
-21 1 0
-21 9 0
22 -20 -21 0
-22 20 0
-22 21 0
23 -3 -8 0
-23 3 0
-23 8 0
24 -2 -9 0
-24 2 0
-24 9 0
25 -24 -23 0
-25 24 0
-25 23 0
26 -3 -8 0
-26 3 0
-26 8 0
27 -26 -22 0
-27 26 0
-27 22 0
28 -2 -9 0
-28 2 0
-28 9 0
29 -28 -22 0
-29 28 0
-29 22 0
30 27 29 0
-30 -27 0
-30 -29 0
31 25 -30 0
-31 -25 0
-31 30 0
32 -3 -8 0
-32 3 0
-32 8 0
33 -2 -9 0
-33 2 0
-33 9 0
34 -33 22 0
-34 33 0
-34 -22 0
35 33 -22 0
-35 -33 0
-35 22 0
36 35 34 0
-36 -35 0
-36 -34 0
37 -32 -36 0
-37 32 0
-37 36 0
38 32 36 0
-38 -32 0
-38 -36 0
39 38 37 0
-39 -38 0
-39 -37 0
40 -4 -8 0
-40 4 0
-40 8 0
41 -3 -9 0
-41 3 0
-41 9 0
42 -40 -41 0
-42 40 0
-42 41 0
43 -4 -8 0
-43 4 0
-43 8 0
44 -43 31 0
-44 43 0
-44 -31 0
45 -3 -9 0
-45 3 0
-45 9 0
46 -45 31 0
-46 45 0
-46 -31 0
47 44 46 0
-47 -44 0
-47 -46 0
48 42 -47 0
-48 -42 0
-48 47 0
49 -4 -8 0
-49 4 0
-49 8 0
50 -3 -9 0
-50 3 0
-50 9 0
51 -50 -31 0
-51 50 0
-51 31 0
52 50 31 0
-52 -50 0
-52 -31 0
53 51 52 0
-53 -51 0
-53 -52 0
54 -49 -53 0
-54 49 0
-54 53 0
55 49 53 0
-55 -49 0
-55 -53 0
56 55 54 0
-56 -55 0
-56 -54 0
57 -5 -8 0
-57 5 0
-57 8 0
58 -4 -9 0
-58 4 0
-58 9 0
59 -58 -57 0
-59 58 0
-59 57 0
60 -5 -8 0
-60 5 0
-60 8 0
61 -60 48 0
-61 60 0
-61 -48 0
62 -4 -9 0
-62 4 0
-62 9 0
63 -62 48 0
-63 62 0
-63 -48 0
64 61 63 0
-64 -61 0
-64 -63 0
65 59 -64 0
-65 -59 0
-65 64 0
66 -5 -8 0
-66 5 0
-66 8 0
67 -4 -9 0
-67 4 0
-67 9 0
68 -67 -48 0
-68 67 0
-68 48 0
69 67 48 0
-69 -67 0
-69 -48 0
70 69 68 0
-70 -69 0
-70 -68 0
71 -66 -70 0
-71 66 0
-71 70 0
72 66 70 0
-72 -66 0
-72 -70 0
73 72 71 0
-73 -72 0
-73 -71 0
74 -6 -8 0
-74 6 0
-74 8 0
75 -5 -9 0
-75 5 0
-75 9 0
76 -74 -75 0
-76 74 0
-76 75 0
77 -6 -8 0
-77 6 0
-77 8 0
78 -77 65 0
-78 77 0
-78 -65 0
79 -5 -9 0
-79 5 0
-79 9 0
80 -79 65 0
-80 79 0
-80 -65 0
81 80 78 0
-81 -80 0
-81 -78 0
82 76 -81 0
-82 -76 0
-82 81 0
83 -6 -8 0
-83 6 0
-83 8 0
84 -5 -9 0
-84 5 0
-84 9 0
85 -84 -65 0
-85 84 0
-85 65 0
86 84 65 0
-86 -84 0
-86 -65 0
87 86 85 0
-87 -86 0
-87 -85 0
88 -83 -87 0
-88 83 0
-88 87 0
89 83 87 0
-89 -83 0
-89 -87 0
90 88 89 0
-90 -88 0
-90 -89 0
91 -7 -8 0
-91 7 0
-91 8 0
92 -6 -9 0
-92 6 0
-92 9 0
93 -92 -91 0
-93 92 0
-93 91 0
94 -7 -8 0
-94 7 0
-94 8 0
95 -94 82 0
-95 94 0
-95 -82 0
96 -6 -9 0
-96 6 0
-96 9 0
97 -96 82 0
-97 96 0
-97 -82 0
98 97 95 0
-98 -97 0
-98 -95 0
99 93 -98 0
-99 -93 0
-99 98 0
100 -7 -8 0
-100 7 0
-100 8 0
101 -6 -9 0
-101 6 0
-101 9 0
102 -101 -82 0
-102 101 0
-102 82 0
103 101 82 0
-103 -101 0
-103 -82 0
104 102 103 0
-104 -102 0
-104 -103 0
105 -100 -104 0
-105 100 0
-105 104 0
106 100 104 0
-106 -100 0
-106 -104 0
107 106 105 0
-107 -106 0
-107 -105 0
108 -7 -9 0
-108 7 0
-108 9 0
109 -108 99 0
-109 108 0
-109 -99 0
110 -7 -9 0
-110 7 0
-110 9 0
111 -110 -99 0
-111 110 0
-111 99 0
112 110 99 0
-112 -110 0
-112 -99 0
113 112 111 0
-113 -112 0
-113 -111 0
114 -1 -10 0
-114 1 0
-114 10 0
115 114 39 0
-115 -114 0
-115 -39 0
116 -114 -39 0
-116 114 0
-116 39 0
117 116 115 0
-117 -116 0
-117 -115 0
118 -1 -10 0
-118 1 0
-118 10 0
119 -118 39 0
-119 118 0
-119 -39 0
120 -2 -10 0
-120 2 0
-120 10 0
121 -120 56 0
-121 120 0
-121 -56 0
122 56 -119 0
-122 -56 0
-122 119 0
123 -2 -10 0
-123 2 0
-123 10 0
124 -123 -119 0
-124 123 0
-124 119 0
125 124 122 0
-125 -124 0
-125 -122 0
126 121 -125 0
-126 -121 0
-126 125 0
127 -2 -10 0
-127 2 0
-127 10 0
128 -127 119 0
-128 127 0
-128 -119 0
129 127 -119 0
-129 -127 0
-129 119 0
130 129 128 0
-130 -129 0
-130 -128 0
131 56 -130 0
-131 -56 0
-131 130 0
132 -56 130 0
-132 56 0
-132 -130 0
133 131 132 0
-133 -131 0
-133 -132 0
134 -3 -10 0
-134 3 0
-134 10 0
135 -134 73 0
-135 134 0
-135 -73 0
136 73 126 0
-136 -73 0
-136 -126 0
137 -3 -10 0
-137 3 0
-137 10 0
138 -137 126 0
-138 137 0
-138 -126 0
139 136 138 0
-139 -136 0
-139 -138 0
140 135 -139 0
-140 -135 0
-140 139 0
141 -3 -10 0
-141 3 0
-141 10 0
142 -141 -126 0
-142 141 0
-142 126 0
143 141 126 0
-143 -141 0
-143 -126 0
144 142 143 0
-144 -142 0
-144 -143 0
145 -144 73 0
-145 144 0
-145 -73 0
146 144 -73 0
-146 -144 0
-146 73 0
147 145 146 0
-147 -145 0
-147 -146 0
148 -4 -10 0
-148 4 0
-148 10 0
149 -148 90 0
-149 148 0
-149 -90 0
150 140 90 0
-150 -140 0
-150 -90 0
151 -4 -10 0
-151 4 0
-151 10 0
152 -151 140 0
-152 151 0
-152 -140 0
153 152 150 0
-153 -152 0
-153 -150 0
154 149 -153 0
-154 -149 0
-154 153 0
155 -4 -10 0
-155 4 0
-155 10 0
156 -155 -140 0
-156 155 0
-156 140 0
157 155 140 0
-157 -155 0
-157 -140 0
158 156 157 0
-158 -156 0
-158 -157 0
159 -158 90 0
-159 158 0
-159 -90 0
160 158 -90 0
-160 -158 0
-160 90 0
161 160 159 0
-161 -160 0
-161 -159 0
162 -5 -10 0
-162 5 0
-162 10 0
163 -162 107 0
-163 162 0
-163 -107 0
164 107 154 0
-164 -107 0
-164 -154 0
165 -5 -10 0
-165 5 0
-165 10 0
166 -165 154 0
-166 165 0
-166 -154 0
167 164 166 0
-167 -164 0
-167 -166 0
168 -167 163 0
-168 167 0
-168 -163 0
169 -5 -10 0
-169 5 0
-169 10 0
170 -169 -154 0
-170 169 0
-170 154 0
171 169 154 0
-171 -169 0
-171 -154 0
172 170 171 0
-172 -170 0
-172 -171 0
173 107 -172 0
-173 -107 0
-173 172 0
174 -107 172 0
-174 107 0
-174 -172 0
175 173 174 0
-175 -173 0
-175 -174 0
176 -6 -10 0
-176 6 0
-176 10 0
177 -176 113 0
-177 176 0
-177 -113 0
178 113 168 0
-178 -113 0
-178 -168 0
179 -6 -10 0
-179 6 0
-179 10 0
180 -179 168 0
-180 179 0
-180 -168 0
181 178 180 0
-181 -178 0
-181 -180 0
182 177 -181 0
-182 -177 0
-182 181 0
183 -6 -10 0
-183 6 0
-183 10 0
184 -183 -168 0
-184 183 0
-184 168 0
185 183 168 0
-185 -183 0
-185 -168 0
186 184 185 0
-186 -184 0
-186 -185 0
187 -186 113 0
-187 186 0
-187 -113 0
188 186 -113 0
-188 -186 0
-188 113 0
189 188 187 0
-189 -188 0
-189 -187 0
190 -7 -10 0
-190 7 0
-190 10 0
191 -190 -109 0
-191 190 0
-191 109 0
192 -109 182 0
-192 109 0
-192 -182 0
193 -7 -10 0
-193 7 0
-193 10 0
194 -193 182 0
-194 193 0
-194 -182 0
195 192 194 0
-195 -192 0
-195 -194 0
196 -195 191 0
-196 195 0
-196 -191 0
197 -7 -10 0
-197 7 0
-197 10 0
198 -197 -182 0
-198 197 0
-198 182 0
199 197 182 0
-199 -197 0
-199 -182 0
200 198 199 0
-200 -198 0
-200 -199 0
201 -109 -200 0
-201 109 0
-201 200 0
202 109 200 0
-202 -109 0
-202 -200 0
203 202 201 0
-203 -202 0
-203 -201 0
204 -1 -11 0
-204 1 0
-204 11 0
205 204 133 0
-205 -204 0
-205 -133 0
206 -204 -133 0
-206 204 0
-206 133 0
207 206 205 0
-207 -206 0
-207 -205 0
208 -1 -11 0
-208 1 0
-208 11 0
209 -208 133 0
-209 208 0
-209 -133 0
210 -2 -11 0
-210 2 0
-210 11 0
211 -210 147 0
-211 210 0
-211 -147 0
212 147 -209 0
-212 -147 0
-212 209 0
213 -2 -11 0
-213 2 0
-213 11 0
214 -213 -209 0
-214 213 0
-214 209 0
215 212 214 0
-215 -212 0
-215 -214 0
216 211 -215 0
-216 -211 0
-216 215 0
217 -2 -11 0
-217 2 0
-217 11 0
218 -217 209 0
-218 217 0
-218 -209 0
219 217 -209 0
-219 -217 0
-219 209 0
220 218 219 0
-220 -218 0
-220 -219 0
221 147 -220 0
-221 -147 0
-221 220 0
222 -147 220 0
-222 147 0
-222 -220 0
223 222 221 0
-223 -222 0
-223 -221 0
224 -3 -11 0
-224 3 0
-224 11 0
225 -224 161 0
-225 224 0
-225 -161 0
226 161 216 0
-226 -161 0
-226 -216 0
227 -3 -11 0
-227 3 0
-227 11 0
228 -227 216 0
-228 227 0
-228 -216 0
229 226 228 0
-229 -226 0
-229 -228 0
230 -229 225 0
-230 229 0
-230 -225 0
231 -3 -11 0
-231 3 0
-231 11 0
232 -231 -216 0
-232 231 0
-232 216 0
233 231 216 0
-233 -231 0
-233 -216 0
234 233 232 0
-234 -233 0
-234 -232 0
235 -234 161 0
-235 234 0
-235 -161 0
236 234 -161 0
-236 -234 0
-236 161 0
237 236 235 0
-237 -236 0
-237 -235 0
238 -4 -11 0
-238 4 0
-238 11 0
239 -238 175 0
-239 238 0
-239 -175 0
240 175 230 0
-240 -175 0
-240 -230 0
241 -4 -11 0
-241 4 0
-241 11 0
242 -241 230 0
-242 241 0
-242 -230 0
243 240 242 0
-243 -240 0
-243 -242 0
244 239 -243 0
-244 -239 0
-244 243 0
245 -4 -11 0
-245 4 0
-245 11 0
246 -245 -230 0
-246 245 0
-246 230 0
247 245 230 0
-247 -245 0
-247 -230 0
248 246 247 0
-248 -246 0
-248 -247 0
249 175 -248 0
-249 -175 0
-249 248 0
250 -175 248 0
-250 175 0
-250 -248 0
251 250 249 0
-251 -250 0
-251 -249 0
252 -5 -11 0
-252 5 0
-252 11 0
253 -252 189 0
-253 252 0
-253 -189 0
254 244 189 0
-254 -244 0
-254 -189 0
255 -5 -11 0
-255 5 0
-255 11 0
256 -255 244 0
-256 255 0
-256 -244 0
257 254 256 0
-257 -254 0
-257 -256 0
258 -257 253 0
-258 257 0
-258 -253 0
259 -5 -11 0
-259 5 0
-259 11 0
260 -259 -244 0
-260 259 0
-260 244 0
261 259 244 0
-261 -259 0
-261 -244 0
262 261 260 0
-262 -261 0
-262 -260 0
263 -262 189 0
-263 262 0
-263 -189 0
264 262 -189 0
-264 -262 0
-264 189 0
265 263 264 0
-265 -263 0
-265 -264 0
266 -6 -11 0
-266 6 0
-266 11 0
267 -266 203 0
-267 266 0
-267 -203 0
268 203 258 0
-268 -203 0
-268 -258 0
269 -6 -11 0
-269 6 0
-269 11 0
270 -269 258 0
-270 269 0
-270 -258 0
271 268 270 0
-271 -268 0
-271 -270 0
272 267 -271 0
-272 -267 0
-272 271 0
273 -6 -11 0
-273 6 0
-273 11 0
274 -273 -258 0
-274 273 0
-274 258 0
275 273 258 0
-275 -273 0
-275 -258 0
276 275 274 0
-276 -275 0
-276 -274 0
277 203 -276 0
-277 -203 0
-277 276 0
278 -203 276 0
-278 203 0
-278 -276 0
279 277 278 0
-279 -277 0
-279 -278 0
280 -7 -11 0
-280 7 0
-280 11 0
281 -280 196 0
-281 280 0
-281 -196 0
282 196 272 0
-282 -196 0
-282 -272 0
283 -7 -11 0
-283 7 0
-283 11 0
284 -283 272 0
-284 283 0
-284 -272 0
285 282 284 0
-285 -282 0
-285 -284 0
286 -285 281 0
-286 285 0
-286 -281 0
287 -7 -11 0
-287 7 0
-287 11 0
288 -287 -272 0
-288 287 0
-288 272 0
289 287 272 0
-289 -287 0
-289 -272 0
290 288 289 0
-290 -288 0
-290 -289 0
291 -290 196 0
-291 290 0
-291 -196 0
292 290 -196 0
-292 -290 0
-292 196 0
293 292 291 0
-293 -292 0
-293 -291 0
294 -1 -12 0
-294 1 0
-294 12 0
295 294 223 0
-295 -294 0
-295 -223 0
296 -294 -223 0
-296 294 0
-296 223 0
297 295 296 0
-297 -295 0
-297 -296 0
298 -1 -12 0
-298 1 0
-298 12 0
299 -298 223 0
-299 298 0
-299 -223 0
300 -2 -12 0
-300 2 0
-300 12 0
301 -300 237 0
-301 300 0
-301 -237 0
302 237 -299 0
-302 -237 0
-302 299 0
303 -2 -12 0
-303 2 0
-303 12 0
304 -303 -299 0
-304 303 0
-304 299 0
305 304 302 0
-305 -304 0
-305 -302 0
306 301 -305 0
-306 -301 0
-306 305 0
307 -2 -12 0
-307 2 0
-307 12 0
308 -307 299 0
-308 307 0
-308 -299 0
309 307 -299 0
-309 -307 0
-309 299 0
310 308 309 0
-310 -308 0
-310 -309 0
311 -310 237 0
-311 310 0
-311 -237 0
312 310 -237 0
-312 -310 0
-312 237 0
313 311 312 0
-313 -311 0
-313 -312 0
314 -3 -12 0
-314 3 0
-314 12 0
315 -314 251 0
-315 314 0
-315 -251 0
316 251 306 0
-316 -251 0
-316 -306 0
317 -3 -12 0
-317 3 0
-317 12 0
318 -317 306 0
-318 317 0
-318 -306 0
319 316 318 0
-319 -316 0
-319 -318 0
320 315 -319 0
-320 -315 0
-320 319 0
321 -3 -12 0
-321 3 0
-321 12 0
322 -321 -306 0
-322 321 0
-322 306 0
323 321 306 0
-323 -321 0
-323 -306 0
324 322 323 0
-324 -322 0
-324 -323 0
325 251 -324 0
-325 -251 0
-325 324 0
326 -251 324 0
-326 251 0
-326 -324 0
327 326 325 0
-327 -326 0
-327 -325 0
328 -4 -12 0
-328 4 0
-328 12 0
329 -328 265 0
-329 328 0
-329 -265 0
330 320 265 0
-330 -320 0
-330 -265 0
331 -4 -12 0
-331 4 0
-331 12 0
332 -331 320 0
-332 331 0
-332 -320 0
333 330 332 0
-333 -330 0
-333 -332 0
334 329 -333 0
-334 -329 0
-334 333 0
335 -4 -12 0
-335 4 0
-335 12 0
336 -335 -320 0
-336 335 0
-336 320 0
337 335 320 0
-337 -335 0
-337 -320 0
338 337 336 0
-338 -337 0
-338 -336 0
339 -338 265 0
-339 338 0
-339 -265 0
340 338 -265 0
-340 -338 0
-340 265 0
341 339 340 0
-341 -339 0
-341 -340 0
342 -5 -12 0
-342 5 0
-342 12 0
343 -342 279 0
-343 342 0
-343 -279 0
344 279 334 0
-344 -279 0
-344 -334 0
345 -5 -12 0
-345 5 0
-345 12 0
346 -345 334 0
-346 345 0
-346 -334 0
347 344 346 0
-347 -344 0
-347 -346 0
348 -347 343 0
-348 347 0
-348 -343 0
349 -5 -12 0
-349 5 0
-349 12 0
350 -349 -334 0
-350 349 0
-350 334 0
351 349 334 0
-351 -349 0
-351 -334 0
352 351 350 0
-352 -351 0
-352 -350 0
353 -352 279 0
-353 352 0
-353 -279 0
354 352 -279 0
-354 -352 0
-354 279 0
355 353 354 0
-355 -353 0
-355 -354 0
356 -6 -12 0
-356 6 0
-356 12 0
357 -356 293 0
-357 356 0
-357 -293 0
358 293 348 0
-358 -293 0
-358 -348 0
359 -6 -12 0
-359 6 0
-359 12 0
360 -359 348 0
-360 359 0
-360 -348 0
361 360 358 0
-361 -360 0
-361 -358 0
362 -361 357 0
-362 361 0
-362 -357 0
363 -6 -12 0
-363 6 0
-363 12 0
364 -363 -348 0
-364 363 0
-364 348 0
365 363 348 0
-365 -363 0
-365 -348 0
366 364 365 0
-366 -364 0
-366 -365 0
367 293 -366 0
-367 -293 0
-367 366 0
368 -293 366 0
-368 293 0
-368 -366 0
369 367 368 0
-369 -367 0
-369 -368 0
370 -7 -12 0
-370 7 0
-370 12 0
371 -370 286 0
-371 370 0
-371 -286 0
372 286 362 0
-372 -286 0
-372 -362 0
373 -7 -12 0
-373 7 0
-373 12 0
374 -373 362 0
-374 373 0
-374 -362 0
375 372 374 0
-375 -372 0
-375 -374 0
376 371 -375 0
-376 -371 0
-376 375 0
377 -7 -12 0
-377 7 0
-377 12 0
378 -377 -362 0
-378 377 0
-378 362 0
379 377 362 0
-379 -377 0
-379 -362 0
380 378 379 0
-380 -378 0
-380 -379 0
381 -380 286 0
-381 380 0
-381 -286 0
382 380 -286 0
-382 -380 0
-382 286 0
383 381 382 0
-383 -381 0
-383 -382 0
384 -1 -13 0
-384 1 0
-384 13 0
385 384 313 0
-385 -384 0
-385 -313 0
386 -384 -313 0
-386 384 0
-386 313 0
387 385 386 0
-387 -385 0
-387 -386 0
388 -1 -13 0
-388 1 0
-388 13 0
389 -388 313 0
-389 388 0
-389 -313 0
390 -2 -13 0
-390 2 0
-390 13 0
391 -390 327 0
-391 390 0
-391 -327 0
392 327 -389 0
-392 -327 0
-392 389 0
393 -2 -13 0
-393 2 0
-393 13 0
394 -393 -389 0
-394 393 0
-394 389 0
395 392 394 0
-395 -392 0
-395 -394 0
396 391 -395 0
-396 -391 0
-396 395 0
397 -2 -13 0
-397 2 0
-397 13 0
398 -397 389 0
-398 397 0
-398 -389 0
399 397 -389 0
-399 -397 0
-399 389 0
400 398 399 0
-400 -398 0
-400 -399 0
401 -400 327 0
-401 400 0
-401 -327 0
402 400 -327 0
-402 -400 0
-402 327 0
403 401 402 0
-403 -401 0
-403 -402 0
404 -3 -13 0
-404 3 0
-404 13 0
405 -404 341 0
-405 404 0
-405 -341 0
406 341 396 0
-406 -341 0
-406 -396 0
407 -3 -13 0
-407 3 0
-407 13 0
408 -407 396 0
-408 407 0
-408 -396 0
409 408 406 0
-409 -408 0
-409 -406 0
410 405 -409 0
-410 -405 0
-410 409 0
411 -3 -13 0
-411 3 0
-411 13 0
412 -411 -396 0
-412 411 0
-412 396 0
413 411 396 0
-413 -411 0
-413 -396 0
414 412 413 0
-414 -412 0
-414 -413 0
415 341 -414 0
-415 -341 0
-415 414 0
416 -341 414 0
-416 341 0
-416 -414 0
417 416 415 0
-417 -416 0
-417 -415 0
418 -4 -13 0
-418 4 0
-418 13 0
419 -418 355 0
-419 418 0
-419 -355 0
420 355 410 0
-420 -355 0
-420 -410 0
421 -4 -13 0
-421 4 0
-421 13 0
422 -421 410 0
-422 421 0
-422 -410 0
423 420 422 0
-423 -420 0
-423 -422 0
424 419 -423 0
-424 -419 0
-424 423 0
425 -4 -13 0
-425 4 0
-425 13 0
426 -425 -410 0
-426 425 0
-426 410 0
427 425 410 0
-427 -425 0
-427 -410 0
428 426 427 0
-428 -426 0
-428 -427 0
429 355 -428 0
-429 -355 0
-429 428 0
430 -355 428 0
-430 355 0
-430 -428 0
431 430 429 0
-431 -430 0
-431 -429 0
432 -5 -13 0
-432 5 0
-432 13 0
433 -432 369 0
-433 432 0
-433 -369 0
434 369 424 0
-434 -369 0
-434 -424 0
435 -5 -13 0
-435 5 0
-435 13 0
436 -435 424 0
-436 435 0
-436 -424 0
437 434 436 0
-437 -434 0
-437 -436 0
438 433 -437 0
-438 -433 0
-438 437 0
439 -5 -13 0
-439 5 0
-439 13 0
440 -439 -424 0
-440 439 0
-440 424 0
441 439 424 0
-441 -439 0
-441 -424 0
442 440 441 0
-442 -440 0
-442 -441 0
443 -442 369 0
-443 442 0
-443 -369 0
444 442 -369 0
-444 -442 0
-444 369 0
445 443 444 0
-445 -443 0
-445 -444 0
446 -6 -13 0
-446 6 0
-446 13 0
447 -446 383 0
-447 446 0
-447 -383 0
448 438 383 0
-448 -438 0
-448 -383 0
449 -6 -13 0
-449 6 0
-449 13 0
450 -449 438 0
-450 449 0
-450 -438 0
451 448 450 0
-451 -448 0
-451 -450 0
452 -451 447 0
-452 451 0
-452 -447 0
453 -6 -13 0
-453 6 0
-453 13 0
454 -453 -438 0
-454 453 0
-454 438 0
455 453 438 0
-455 -453 0
-455 -438 0
456 455 454 0
-456 -455 0
-456 -454 0
457 -456 383 0
-457 456 0
-457 -383 0
458 456 -383 0
-458 -456 0
-458 383 0
459 458 457 0
-459 -458 0
-459 -457 0
460 -7 -13 0
-460 7 0
-460 13 0
461 -460 376 0
-461 460 0
-461 -376 0
462 376 452 0
-462 -376 0
-462 -452 0
463 -7 -13 0
-463 7 0
-463 13 0
464 -463 452 0
-464 463 0
-464 -452 0
465 462 464 0
-465 -462 0
-465 -464 0
466 -465 461 0
-466 465 0
-466 -461 0
467 -7 -13 0
-467 7 0
-467 13 0
468 -467 -452 0
-468 467 0
-468 452 0
469 467 452 0
-469 -467 0
-469 -452 0
470 469 468 0
-470 -469 0
-470 -468 0
471 -470 376 0
-471 470 0
-471 -376 0
472 470 -376 0
-472 -470 0
-472 376 0
473 471 472 0
-473 -471 0
-473 -472 0
474 -1 -14 0
-474 1 0
-474 14 0
475 474 403 0
-475 -474 0
-475 -403 0
476 -474 -403 0
-476 474 0
-476 403 0
477 476 475 0
-477 -476 0
-477 -475 0
478 -1 -14 0
-478 1 0
-478 14 0
479 -478 403 0
-479 478 0
-479 -403 0
480 -2 -14 0
-480 2 0
-480 14 0
481 -480 417 0
-481 480 0
-481 -417 0
482 -479 417 0
-482 479 0
-482 -417 0
483 -2 -14 0
-483 2 0
-483 14 0
484 -483 -479 0
-484 483 0
-484 479 0
485 484 482 0
-485 -484 0
-485 -482 0
486 481 -485 0
-486 -481 0
-486 485 0
487 -2 -14 0
-487 2 0
-487 14 0
488 -487 479 0
-488 487 0
-488 -479 0
489 487 -479 0
-489 -487 0
-489 479 0
490 488 489 0
-490 -488 0
-490 -489 0
491 -490 417 0
-491 490 0
-491 -417 0
492 490 -417 0
-492 -490 0
-492 417 0
493 491 492 0
-493 -491 0
-493 -492 0
494 -3 -14 0
-494 3 0
-494 14 0
495 -494 431 0
-495 494 0
-495 -431 0
496 486 431 0
-496 -486 0
-496 -431 0
497 -3 -14 0
-497 3 0
-497 14 0
498 -497 486 0
-498 497 0
-498 -486 0
499 498 496 0
-499 -498 0
-499 -496 0
500 -499 495 0
-500 499 0
-500 -495 0
501 -3 -14 0
-501 3 0
-501 14 0
502 -501 -486 0
-502 501 0
-502 486 0
503 501 486 0
-503 -501 0
-503 -486 0
504 502 503 0
-504 -502 0
-504 -503 0
505 431 -504 0
-505 -431 0
-505 504 0
506 -431 504 0
-506 431 0
-506 -504 0
507 505 506 0
-507 -505 0
-507 -506 0
508 -4 -14 0
-508 4 0
-508 14 0
509 -508 445 0
-509 508 0
-509 -445 0
510 500 445 0
-510 -500 0
-510 -445 0
511 -4 -14 0
-511 4 0
-511 14 0
512 -511 500 0
-512 511 0
-512 -500 0
513 512 510 0
-513 -512 0
-513 -510 0
514 509 -513 0
-514 -509 0
-514 513 0
515 -4 -14 0
-515 4 0
-515 14 0
516 -515 -500 0
-516 515 0
-516 500 0
517 515 500 0
-517 -515 0
-517 -500 0
518 516 517 0
-518 -516 0
-518 -517 0
519 -518 445 0
-519 518 0
-519 -445 0
520 518 -445 0
-520 -518 0
-520 445 0
521 519 520 0
-521 -519 0
-521 -520 0
522 -5 -14 0
-522 5 0
-522 14 0
523 -522 459 0
-523 522 0
-523 -459 0
524 459 514 0
-524 -459 0
-524 -514 0
525 -5 -14 0
-525 5 0
-525 14 0
526 -525 514 0
-526 525 0
-526 -514 0
527 524 526 0
-527 -524 0
-527 -526 0
528 523 -527 0
-528 -523 0
-528 527 0
529 -5 -14 0
-529 5 0
-529 14 0
530 -529 -514 0
-530 529 0
-530 514 0
531 529 514 0
-531 -529 0
-531 -514 0
532 531 530 0
-532 -531 0
-532 -530 0
533 459 -532 0
-533 -459 0
-533 532 0
534 -459 532 0
-534 459 0
-534 -532 0
535 533 534 0
-535 -533 0
-535 -534 0
536 -6 -14 0
-536 6 0
-536 14 0
537 -536 473 0
-537 536 0
-537 -473 0
538 473 528 0
-538 -473 0
-538 -528 0
539 -6 -14 0
-539 6 0
-539 14 0
540 -539 528 0
-540 539 0
-540 -528 0
541 538 540 0
-541 -538 0
-541 -540 0
542 537 -541 0
-542 -537 0
-542 541 0
543 -6 -14 0
-543 6 0
-543 14 0
544 -543 -528 0
-544 543 0
-544 528 0
545 543 528 0
-545 -543 0
-545 -528 0
546 545 544 0
-546 -545 0
-546 -544 0
547 -546 473 0
-547 546 0
-547 -473 0
548 546 -473 0
-548 -546 0
-548 473 0
549 548 547 0
-549 -548 0
-549 -547 0
550 -7 -14 0
-550 7 0
-550 14 0
551 -550 466 0
-551 550 0
-551 -466 0
552 542 466 0
-552 -542 0
-552 -466 0
553 -7 -14 0
-553 7 0
-553 14 0
554 -553 542 0
-554 553 0
-554 -542 0
555 552 554 0
-555 -552 0
-555 -554 0
556 -555 551 0
-556 555 0
-556 -551 0
557 -7 -14 0
-557 7 0
-557 14 0
558 -557 -542 0
-558 557 0
-558 542 0
559 557 542 0
-559 -557 0
-559 -542 0
560 558 559 0
-560 -558 0
-560 -559 0
561 -560 466 0
-561 560 0
-561 -466 0
562 560 -466 0
-562 -560 0
-562 466 0
563 561 562 0
-563 -561 0
-563 -562 0
564 -1 -8 0
-564 1 0
-564 8 0
-565 564 0
565 -564 0
-566 -19 0
566 19 0
-567 -117 0
567 117 0
-568 -207 0
568 207 0
-569 -297 0
569 297 0
-570 -387 0
570 387 0
-571 -477 0
571 477 0
-572 -493 0
572 493 0
-573 -507 0
573 507 0
-574 -521 0
574 521 0
-575 -535 0
575 535 0
-576 -549 0
576 549 0
-577 -563 0
577 563 0
-578 -556 0
578 556 0
-565 0
-566 0
-567 0
568 0
-569 0
570 0
-571 0
572 0
573 0
-574 0
575 0
576 0
577 0
-578 0
